c "103355.clq"
p edge 100 1344
e 1 17
e 1 18
e 1 19
e 1 20
e 1 21
e 1 23
e 1 24
e 1 25
e 1 26
e 1 27
e 1 28
e 1 29
e 1 30
e 1 31
e 1 35
e 1 36
e 1 38
e 1 39
e 1 45
e 1 46
e 1 48
e 1 54
e 1 56
e 1 63
e 1 74
e 1 76
e 1 77
e 1 84
e 1 85
e 1 86
e 1 87
e 1 99
e 2 17
e 2 18
e 2 23
e 2 31
e 2 32
e 2 37
e 2 42
e 2 53
e 2 59
e 2 61
e 2 72
e 2 74
e 2 75
e 2 82
e 2 88
e 2 90
e 3 17
e 3 18
e 3 19
e 3 20
e 3 21
e 3 23
e 3 24
e 3 25
e 3 26
e 3 27
e 3 28
e 3 29
e 3 30
e 3 31
e 3 33
e 3 34
e 3 38
e 3 40
e 3 41
e 3 43
e 3 44
e 3 51
e 3 52
e 3 57
e 3 58
e 3 59
e 3 69
e 3 70
e 3 71
e 3 75
e 3 76
e 3 86
e 3 88
e 3 89
e 3 93
e 3 96
e 3 100
e 4 17
e 4 18
e 4 19
e 4 20
e 4 21
e 4 22
e 4 23
e 4 25
e 4 26
e 4 27
e 4 28
e 4 29
e 4 32
e 4 35
e 4 38
e 4 40
e 4 42
e 4 44
e 4 50
e 4 52
e 4 53
e 4 56
e 4 58
e 4 67
e 4 88
e 4 100
e 5 17
e 5 18
e 5 19
e 5 20
e 5 21
e 5 22
e 5 23
e 5 24
e 5 25
e 5 26
e 5 27
e 5 28
e 5 30
e 5 34
e 5 41
e 5 45
e 5 50
e 5 53
e 5 63
e 5 73
e 5 78
e 5 86
e 5 96
e 6 17
e 6 18
e 6 19
e 6 20
e 6 23
e 6 35
e 6 36
e 6 37
e 6 43
e 6 46
e 6 50
e 6 51
e 6 53
e 6 55
e 6 74
e 6 76
e 6 77
e 6 84
e 6 95
e 6 100
e 7 17
e 7 18
e 7 19
e 7 20
e 7 22
e 7 24
e 7 25
e 7 27
e 7 31
e 7 32
e 7 37
e 7 39
e 7 40
e 7 41
e 7 43
e 7 48
e 7 65
e 7 90
e 8 17
e 8 18
e 8 19
e 8 20
e 8 21
e 8 22
e 8 23
e 8 32
e 8 44
e 8 62
e 8 70
e 8 73
e 8 81
e 8 82
e 8 99
e 9 17
e 9 21
e 9 22
e 9 23
e 9 26
e 9 30
e 9 31
e 9 33
e 9 37
e 9 41
e 9 45
e 9 47
e 9 51
e 9 53
e 9 55
e 9 59
e 9 60
e 9 65
e 9 68
e 9 76
e 9 78
e 9 82
e 9 95
e 9 98
e 10 17
e 10 18
e 10 19
e 10 20
e 10 21
e 10 22
e 10 23
e 10 24
e 10 28
e 10 36
e 10 38
e 10 39
e 10 51
e 10 54
e 10 61
e 10 65
e 10 69
e 10 83
e 10 89
e 10 94
e 10 100
e 11 17
e 11 18
e 11 19
e 11 21
e 11 22
e 11 24
e 11 26
e 11 27
e 11 28
e 11 34
e 11 37
e 11 45
e 11 48
e 11 49
e 11 51
e 11 61
e 11 62
e 11 65
e 11 68
e 11 77
e 11 99
e 11 100
e 12 17
e 12 18
e 12 19
e 12 20
e 12 21
e 12 22
e 12 23
e 12 24
e 12 25
e 12 26
e 12 29
e 12 33
e 12 39
e 12 40
e 12 46
e 12 48
e 12 51
e 12 53
e 12 54
e 12 57
e 12 67
e 12 69
e 12 71
e 12 73
e 12 88
e 12 96
e 12 100
e 13 17
e 13 18
e 13 19
e 13 20
e 13 21
e 13 22
e 13 23
e 13 24
e 13 25
e 13 29
e 13 30
e 13 31
e 13 38
e 13 39
e 13 40
e 13 41
e 13 43
e 13 45
e 13 46
e 13 49
e 13 54
e 13 55
e 13 65
e 13 75
e 13 83
e 13 84
e 14 17
e 14 18
e 14 19
e 14 20
e 14 21
e 14 29
e 14 32
e 14 35
e 14 36
e 14 37
e 14 40
e 14 47
e 14 48
e 14 56
e 14 58
e 14 59
e 14 61
e 14 66
e 14 67
e 14 70
e 14 72
e 14 80
e 14 81
e 14 86
e 14 94
e 14 95
e 15 17
e 15 18
e 15 19
e 15 20
e 15 22
e 15 28
e 15 34
e 15 45
e 15 57
e 15 71
e 15 77
e 15 81
e 15 85
e 15 88
e 15 98
e 16 17
e 16 18
e 16 19
e 16 20
e 16 21
e 16 22
e 16 24
e 16 25
e 16 26
e 16 27
e 16 30
e 16 32
e 16 34
e 16 38
e 16 40
e 16 42
e 16 45
e 16 46
e 16 47
e 16 49
e 16 62
e 16 64
e 16 65
e 16 66
e 16 76
e 16 82
e 16 85
e 16 95
e 16 99
e 17 18
e 17 19
e 17 20
e 17 21
e 17 22
e 17 23
e 17 24
e 17 25
e 17 26
e 17 27
e 17 28
e 17 29
e 17 30
e 17 31
e 17 32
e 17 33
e 17 34
e 17 35
e 17 36
e 17 38
e 17 39
e 17 41
e 17 42
e 17 43
e 17 44
e 17 45
e 17 46
e 17 48
e 17 49
e 17 52
e 17 54
e 17 56
e 17 58
e 17 62
e 17 65
e 17 66
e 17 70
e 17 74
e 17 78
e 17 81
e 17 82
e 17 84
e 17 86
e 17 88
e 17 93
e 17 97
e 18 19
e 18 20
e 18 21
e 18 22
e 18 23
e 18 24
e 18 25
e 18 26
e 18 27
e 18 28
e 18 29
e 18 32
e 18 33
e 18 34
e 18 35
e 18 36
e 18 38
e 18 39
e 18 40
e 18 41
e 18 42
e 18 44
e 18 46
e 18 48
e 18 53
e 18 57
e 18 60
e 18 61
e 18 68
e 18 69
e 18 72
e 18 77
e 18 79
e 18 81
e 18 84
e 18 86
e 18 87
e 18 90
e 18 92
e 18 93
e 18 96
e 18 99
e 18 100
e 19 20
e 19 21
e 19 22
e 19 23
e 19 24
e 19 25
e 19 26
e 19 28
e 19 30
e 19 31
e 19 33
e 19 34
e 19 36
e 19 39
e 19 42
e 19 43
e 19 48
e 19 49
e 19 51
e 19 52
e 19 54
e 19 55
e 19 56
e 19 60
e 19 61
e 19 64
e 19 65
e 19 67
e 19 68
e 19 77
e 19 79
e 19 83
e 19 84
e 19 90
e 19 92
e 19 96
e 19 98
e 19 100
e 20 21
e 20 22
e 20 23
e 20 24
e 20 25
e 20 26
e 20 27
e 20 28
e 20 30
e 20 31
e 20 32
e 20 33
e 20 34
e 20 35
e 20 36
e 20 37
e 20 38
e 20 41
e 20 42
e 20 44
e 20 45
e 20 47
e 20 49
e 20 50
e 20 51
e 20 53
e 20 54
e 20 58
e 20 60
e 20 66
e 20 67
e 20 68
e 20 69
e 20 70
e 20 72
e 20 81
e 20 83
e 20 86
e 20 92
e 20 94
e 20 96
e 20 98
e 21 22
e 21 23
e 21 24
e 21 25
e 21 26
e 21 27
e 21 28
e 21 29
e 21 30
e 21 35
e 21 36
e 21 40
e 21 43
e 21 46
e 21 47
e 21 48
e 21 49
e 21 50
e 21 51
e 21 52
e 21 53
e 21 56
e 21 57
e 21 64
e 21 66
e 21 73
e 21 80
e 21 82
e 21 85
e 21 86
e 21 87
e 21 89
e 21 96
e 21 97
e 21 98
e 21 100
e 22 24
e 22 25
e 22 26
e 22 27
e 22 28
e 22 29
e 22 30
e 22 31
e 22 32
e 22 33
e 22 35
e 22 37
e 22 39
e 22 40
e 22 41
e 22 42
e 22 43
e 22 46
e 22 47
e 22 48
e 22 49
e 22 50
e 22 51
e 22 52
e 22 53
e 22 54
e 22 55
e 22 57
e 22 58
e 22 59
e 22 60
e 22 63
e 22 66
e 22 67
e 22 69
e 22 71
e 22 75
e 22 78
e 22 83
e 22 94
e 22 95
e 22 96
e 22 100
e 23 24
e 23 25
e 23 27
e 23 28
e 23 29
e 23 30
e 23 31
e 23 32
e 23 33
e 23 34
e 23 35
e 23 36
e 23 37
e 23 40
e 23 42
e 23 44
e 23 47
e 23 49
e 23 52
e 23 53
e 23 55
e 23 57
e 23 58
e 23 61
e 23 64
e 23 70
e 23 71
e 23 75
e 23 91
e 23 93
e 23 94
e 23 96
e 23 97
e 24 25
e 24 26
e 24 27
e 24 28
e 24 29
e 24 30
e 24 33
e 24 34
e 24 35
e 24 38
e 24 39
e 24 40
e 24 43
e 24 44
e 24 45
e 24 47
e 24 48
e 24 50
e 24 51
e 24 53
e 24 55
e 24 57
e 24 58
e 24 59
e 24 60
e 24 63
e 24 66
e 24 71
e 24 73
e 24 74
e 24 77
e 24 78
e 24 80
e 24 85
e 24 87
e 24 91
e 24 93
e 24 95
e 24 98
e 25 26
e 25 27
e 25 28
e 25 29
e 25 30
e 25 31
e 25 32
e 25 33
e 25 34
e 25 35
e 25 36
e 25 37
e 25 38
e 25 39
e 25 40
e 25 41
e 25 43
e 25 45
e 25 48
e 25 49
e 25 52
e 25 58
e 25 60
e 25 61
e 25 62
e 25 64
e 25 66
e 25 67
e 25 68
e 25 73
e 25 75
e 25 78
e 25 79
e 25 82
e 25 83
e 25 87
e 25 89
e 25 97
e 25 100
e 26 27
e 26 29
e 26 30
e 26 31
e 26 32
e 26 38
e 26 39
e 26 43
e 26 44
e 26 46
e 26 47
e 26 54
e 26 58
e 26 59
e 26 60
e 26 62
e 26 64
e 26 67
e 26 72
e 26 73
e 26 75
e 26 81
e 26 84
e 26 87
e 26 90
e 26 94
e 26 98
e 27 29
e 27 30
e 27 32
e 27 33
e 27 35
e 27 36
e 27 43
e 27 44
e 27 49
e 27 50
e 27 53
e 27 55
e 27 56
e 27 59
e 27 62
e 27 63
e 27 64
e 27 77
e 27 86
e 27 88
e 27 91
e 28 29
e 28 31
e 28 32
e 28 33
e 28 34
e 28 35
e 28 38
e 28 39
e 28 40
e 28 44
e 28 46
e 28 47
e 28 48
e 28 50
e 28 54
e 28 56
e 28 58
e 28 59
e 28 60
e 28 61
e 28 63
e 28 69
e 28 72
e 28 73
e 28 76
e 28 77
e 28 78
e 28 79
e 28 85
e 28 89
e 28 91
e 28 94
e 29 31
e 29 33
e 29 37
e 29 39
e 29 41
e 29 42
e 29 45
e 29 48
e 29 51
e 29 58
e 29 73
e 29 83
e 29 84
e 30 31
e 30 32
e 30 34
e 30 35
e 30 36
e 30 37
e 30 39
e 30 40
e 30 46
e 30 47
e 30 51
e 30 55
e 30 56
e 30 59
e 30 65
e 30 70
e 30 71
e 30 72
e 30 74
e 30 80
e 30 84
e 30 91
e 30 94
e 31 33
e 31 35
e 31 42
e 31 47
e 31 52
e 31 55
e 31 57
e 31 60
e 31 61
e 31 62
e 31 70
e 31 72
e 31 77
e 31 79
e 31 83
e 31 84
e 31 90
e 31 91
e 31 98
e 31 100
e 32 33
e 32 34
e 32 36
e 32 38
e 32 39
e 32 41
e 32 43
e 32 45
e 32 48
e 32 64
e 32 65
e 32 66
e 32 70
e 32 71
e 32 74
e 32 77
e 32 81
e 32 83
e 32 93
e 32 97
e 32 98
e 33 34
e 33 36
e 33 37
e 33 38
e 33 46
e 33 56
e 33 59
e 33 64
e 33 66
e 33 73
e 33 75
e 33 76
e 33 93
e 33 95
e 34 36
e 34 37
e 34 41
e 34 42
e 34 44
e 34 49
e 34 50
e 34 55
e 34 57
e 34 60
e 34 65
e 34 68
e 34 77
e 34 78
e 34 89
e 34 100
e 35 37
e 35 41
e 35 42
e 35 43
e 35 51
e 35 53
e 35 54
e 35 57
e 35 59
e 35 60
e 35 70
e 35 71
e 35 74
e 35 81
e 35 87
e 35 94
e 35 99
e 36 37
e 36 38
e 36 42
e 36 45
e 36 46
e 36 50
e 36 55
e 36 58
e 36 62
e 36 65
e 36 66
e 36 69
e 36 70
e 36 72
e 36 75
e 36 85
e 36 87
e 36 88
e 36 89
e 36 94
e 36 97
e 37 42
e 37 43
e 37 49
e 37 52
e 37 54
e 37 69
e 37 74
e 37 76
e 37 85
e 37 93
e 37 96
e 38 40
e 38 41
e 38 44
e 38 46
e 38 47
e 38 49
e 38 54
e 38 57
e 38 59
e 38 61
e 38 68
e 38 76
e 38 78
e 38 79
e 38 80
e 38 83
e 38 88
e 38 91
e 38 92
e 38 94
e 38 96
e 38 97
e 39 45
e 39 49
e 39 50
e 39 52
e 39 54
e 39 55
e 39 58
e 39 60
e 39 62
e 39 64
e 39 67
e 39 68
e 39 76
e 39 78
e 39 81
e 39 92
e 39 96
e 39 97
e 40 41
e 40 48
e 40 50
e 40 51
e 40 52
e 40 53
e 40 61
e 40 62
e 40 63
e 40 64
e 40 67
e 40 68
e 40 73
e 40 78
e 40 86
e 40 90
e 40 92
e 40 98
e 41 42
e 41 44
e 41 46
e 41 52
e 41 60
e 41 67
e 41 72
e 41 82
e 41 89
e 42 43
e 42 44
e 42 47
e 42 49
e 42 56
e 42 58
e 42 63
e 42 68
e 42 71
e 42 75
e 42 80
e 42 84
e 42 91
e 42 92
e 43 44
e 43 45
e 43 55
e 43 57
e 43 63
e 43 66
e 43 68
e 43 70
e 43 86
e 43 88
e 43 89
e 43 97
e 44 47
e 44 50
e 44 52
e 44 56
e 44 57
e 44 65
e 44 66
e 44 68
e 44 69
e 44 74
e 44 85
e 44 87
e 44 91
e 44 92
e 45 50
e 45 52
e 45 56
e 45 57
e 45 60
e 45 73
e 45 74
e 45 85
e 45 88
e 45 90
e 45 91
e 45 93
e 45 99
e 46 47
e 46 54
e 46 56
e 46 59
e 46 60
e 46 61
e 46 65
e 46 66
e 46 67
e 46 69
e 46 86
e 46 91
e 46 96
e 47 50
e 47 56
e 47 63
e 47 64
e 47 67
e 47 68
e 47 71
e 47 77
e 47 78
e 47 84
e 47 85
e 47 96
e 48 56
e 48 62
e 48 63
e 48 64
e 48 69
e 48 70
e 48 77
e 48 79
e 48 81
e 48 82
e 48 85
e 48 89
e 48 90
e 48 95
e 49 63
e 49 74
e 49 75
e 49 76
e 49 81
e 49 85
e 49 86
e 49 88
e 49 95
e 49 96
e 50 51
e 50 52
e 50 67
e 50 71
e 50 87
e 50 92
e 51 55
e 51 63
e 51 72
e 51 79
e 51 95
e 51 99
e 52 53
e 52 54
e 52 61
e 52 62
e 52 64
e 52 65
e 52 73
e 52 80
e 52 83
e 52 84
e 52 85
e 52 89
e 52 90
e 52 92
e 52 99
e 52 100
e 53 55
e 53 57
e 53 61
e 53 64
e 53 65
e 53 68
e 53 76
e 53 78
e 53 79
e 53 81
e 53 84
e 53 86
e 53 92
e 54 63
e 54 71
e 54 73
e 54 81
e 55 58
e 55 75
e 55 80
e 55 82
e 55 89
e 55 93
e 55 94
e 55 99
e 56 59
e 56 61
e 56 62
e 56 63
e 56 66
e 56 69
e 56 79
e 56 80
e 56 81
e 56 90
e 56 92
e 56 93
e 56 95
e 56 97
e 57 59
e 57 62
e 57 69
e 57 71
e 57 72
e 57 76
e 57 89
e 57 91
e 57 93
e 58 62
e 58 63
e 58 70
e 58 76
e 58 80
e 58 83
e 59 64
e 59 66
e 59 71
e 59 77
e 59 78
e 59 79
e 59 80
e 59 90
e 59 92
e 59 94
e 60 67
e 60 76
e 60 79
e 60 89
e 60 97
e 61 70
e 61 71
e 61 72
e 61 80
e 61 90
e 62 74
e 62 75
e 62 94
e 63 69
e 63 72
e 63 82
e 63 91
e 63 98
e 64 67
e 64 70
e 64 79
e 64 84
e 64 87
e 64 88
e 64 100
e 65 73
e 65 75
e 65 76
e 65 85
e 65 86
e 65 97
e 66 75
e 66 79
e 66 80
e 67 68
e 67 69
e 67 78
e 67 79
e 67 80
e 67 83
e 67 85
e 67 87
e 67 89
e 67 90
e 67 98
e 68 72
e 68 74
e 68 77
e 68 82
e 68 89
e 68 98
e 68 99
e 69 78
e 69 79
e 69 80
e 69 97
e 70 72
e 70 73
e 70 81
e 70 93
e 71 74
e 71 82
e 71 90
e 71 92
e 72 74
e 72 87
e 72 91
e 72 94
e 72 98
e 74 75
e 75 83
e 75 84
e 75 90
e 75 93
e 76 82
e 76 83
e 76 96
e 77 82
e 77 95
e 78 80
e 78 88
e 78 95
e 79 87
e 79 97
e 79 100
e 80 82
e 80 91
e 80 92
e 80 98
e 80 99
e 81 83
e 81 88
e 81 92
e 82 88
e 82 97
e 83 95
e 83 99
e 84 87
e 85 86
e 85 95
e 86 87
e 87 91
e 87 94
e 88 93
e 88 97
e 88 99
e 89 99
e 90 95
e 91 93
e 92 98
e 97 99
